81
0 62 18 80 23 45 49 16 58 25 
67 54 74 77 13 57 15 4 72 69 
33 8 36 46 79 35 1 11 19 70 
34 47 68 43 60 51 32 64 7 26 
20 63 6 21 66 17 55 27 78 59 
44 29 31 14 53 75 65 9 42 48 
41 76 5 37 56 22 28 71 24 39 
12 61 3 52 50 2 10 30 40 38 
73 
